164
100000
36288
22572
63552
15040
33467
70803
78684
55997
18080
25497
51120
37771
2061
8388
34876
21754
58094
36448
27243
21493
37082
51678
17135
37616
91443
9497
6655
81702
21083
18298
86458
2687
33998
56697
42614
67084
28738
87394
79551
54424
35995
8557
54031
6620
66533
11555
30855
12634
5469
47136
49817
95666
7498
24466
1762
6302
52841
10324
1670
25549
35657
60121
2452
23142
4334
1639
77428
65209
39242
37569
12606
48788
57337
26868
61154
8632
63206
71262
64343
40966
20094
51871
41906
34791
9171
60488
88445
29649
13623
44890
44472
45969
13253
37589
2183
23818
42824
44260
49671
92419
66002
19211
3736
15206
21316
15786
75035
57262
41306
70351
8382
55110
18072
19010
28522
62229
55740
59215
39421
35398
29698
34000
3525
98330
48631
11219
13963
83630
4770
7945
20449
18035
13273
75534
38354
2853
36709
52864
85203
15312
3449
43075
42499
11780
42208
14797
67449
31444
20976
7581
27128
22646
26121
30079
72872
3884
17831
68896
51781
39854
5379
59034
67
48880
